computational_data/solutions/ER_n40_p020_s1.sol
Optimal - objective value 13.00000000
      0 r_0                         1                       1
      4 r_4                         1                       1
     15 r_15                        1                       1
     16 r_16                        1                       1
     17 r_17                        1                       1
     30 r_30                        1                       1
     41 b_1                         1                       1
     47 b_7                         1                       1
     52 b_12                        1                       1
     61 b_21                        1                       1
     65 b_25                        1                       1
     68 b_28                        1                       1
     71 b_31                        1                       1
